40	100	100	100
37	58	38
55	28	63
97	42	57
95	55	9
74	37	10
14	6	63
94	15	72
52	16	61
59	9	8
7	59	77
88	25	40
72	62	71
13	64	67
3	12	71
47	95	84
52	83	20
41	59	99
80	47	9
57	35	51
47	52	19
3	59	77
20	23	12
99	14	52
72	21	58
52	40	38
60	79	9
96	23	9
62	34	13
49	22	89
68	14	88
76	67	65
87	20	60
1	71	69
63	36	11
74	44	19
5	2	90
4	47	97
77	18	29
49	18	65
6	38	78
